4	143	143	0	0	0
5	144	103	0	0	0
6	236	184	0	0	0
7	279	240	0	15	15
8	267	244	0	15	15
9	261	225	0	31	31
10	385	236	0	16	16
11	438	308	0	203	203
12	377	307	0	16	16
13	541	331	0	31	31
14	551	404	0	31	31
15	675	399	0	47	47
16	560	424	0	31	31
17	656	398	0	93	93
18	634	435	0	202	202
19	875	513	0	94	94
